# 3d Lennard-Jones melt

units		lj
atom_style	atomic
boundary p p p

variable	xx equal ${size}
variable	yy equal ${size}
variable	zz equal ${size}


lattice		fcc ${rho}
region		box block 0 ${xx} 0 ${yy} 0 ${zz}
create_box	1 box
create_atoms	1 box
mass		1 1.0 #39.948

velocity	all create ${T} 1 loop geom dist uniform#create temp seed
timestep    ${dt}

pair_style	lj/cut 3.0      
pair_coeff	1 1 1.0 1.0 3.0

neighbor	0.3 bin
neigh_modify	delay 0 every 20 check no

fix	1 all nve

thermo ${Dump}

thermo_style custom temp press pe ke etotal 

#dump dump all custom ${Dump} dump.xyz id type x y z vx vy vz
run		${Run}
